(declare-fun temp2125_1 () (_ BitVec 64))
(declare-fun temp2125_2 () (_ BitVec 64))
(declare-fun var70588 () (_ BitVec 64))
(declare-fun k!0 () Bool)
(declare-fun ARGNAME_input_NAMEEND_DIM () (_ BitVec 64))
(declare-fun temp2125_3 () (_ BitVec 64))
(declare-fun ARGNAME_paddings_NAMEEND_DIM () (_ BitVec 64))
(declare-fun var137105 () (_ BitVec 64))
(declare-fun var137101 () (_ BitVec 64))
(declare-fun var70624 () (_ BitVec 64))
(declare-fun temp2125_4 () (_ BitVec 64))
(declare-fun temp2125_5 () (_ BitVec 64))
(declare-fun ARGNAME_paddings_NAMEEND_DIMSIZE
             ()
             (Array (_ BitVec 64) (_ BitVec 64)))
(declare-fun temp2125_6 () (_ BitVec 64))
(declare-fun temp2125_7 () (_ BitVec 64))
(declare-fun temp2125_8 () (_ BitVec 64))
(declare-fun temp2125_9 () (_ BitVec 64))
(declare-fun temp2125_10 () (_ BitVec 64))
(declare-fun temp2125_11 () (_ BitVec 64))
(declare-fun temp2125_12 () (_ BitVec 64))
(declare-fun temp2125_13 () (_ BitVec 64))
(declare-fun temp2125_14 () (_ BitVec 64))
(declare-fun temp2125_15 () (_ BitVec 64))
(declare-fun temp2125_16 () (_ BitVec 64))
(declare-fun temp2125_17 () (_ BitVec 64))
(declare-fun temp2125_18 () (_ BitVec 64))
(declare-fun var70628 () (_ BitVec 64))
(declare-fun temp2125_19 () (_ BitVec 64))
(declare-fun var70631 () (_ BitVec 64))
(declare-fun temp2125_20 () (_ BitVec 64))
(declare-fun temp2125_21 () (_ BitVec 64))
(declare-fun temp2125_22 () (_ BitVec 64))
(declare-fun var70672 () (_ BitVec 64))
(declare-fun var70673 () (_ BitVec 64))
(declare-fun temp2125_23 () (_ BitVec 64))
(declare-fun temp2125_25 () (_ BitVec 64))
(declare-fun temp2125_24 () (_ BitVec 64))
(declare-fun temp2125_27 () (_ BitVec 64))
(declare-fun temp2125_26 () (_ BitVec 64))
(declare-fun temp2125_29 () (_ BitVec 64))
(declare-fun temp2125_28 () (_ BitVec 64))
(declare-fun temp2125_30 () (_ BitVec 64))
(declare-fun var70819 () (_ BitVec 64))
(declare-fun temp2125_31 () (_ BitVec 64))
(declare-fun temp2125_32 () (_ BitVec 64))
(declare-fun var70840 () (_ BitVec 64))
(declare-fun var596152 () (_ BitVec 64))
(declare-fun temp2125_33 () (_ BitVec 64))
(declare-fun var596153 () (_ BitVec 64))
(declare-fun temp2125_34 () (_ BitVec 64))
(declare-fun var663491 () (_ BitVec 64))
(declare-fun var596156 () (_ BitVec 64))
(declare-fun temp2125_35 () (_ BitVec 64))
(declare-fun var1054904 () (_ BitVec 64))
(declare-fun temp2125_36 () (_ BitVec 64))
(declare-fun var1054905 () (_ BitVec 64))
(declare-fun temp2125_37 () (_ BitVec 64))
(declare-fun var1122243 () (_ BitVec 64))
(declare-fun var1054908 () (_ BitVec 64))
(declare-fun temp2125_38 () (_ BitVec 64))
(declare-fun var70890 () (_ BitVec 64))
(declare-fun temp2125_39 () (_ BitVec 64))
(declare-fun ARGNAME_input_NAMEEND_DIMSIZE
             ()
             (Array (_ BitVec 64) (_ BitVec 64)))
(declare-fun temp2125_40 () (_ BitVec 64))
(declare-fun temp2125_41 () (_ BitVec 64))
(declare-fun temp2125_42 () (_ BitVec 64))
(declare-fun temp2125_43 () (_ BitVec 64))
(declare-fun temp2125_44 () (_ BitVec 64))
(declare-fun temp2125_45 () (_ BitVec 64))
(declare-fun temp2125_46 () (_ BitVec 64))
(declare-fun temp2125_47 () (_ BitVec 64))
(declare-fun temp2125_48 () (_ BitVec 64))
(declare-fun temp2125_49 () (_ BitVec 64))
(declare-fun temp2125_50 () (_ BitVec 64))
(declare-fun temp2125_51 () (_ BitVec 64))
(declare-fun var70891 () (_ BitVec 64))
(declare-fun temp2125_52 () (_ BitVec 64))
(declare-fun var70921 () (_ BitVec 64))
(declare-fun var70925 () (_ BitVec 64))
(declare-fun temp2125_53 () (_ BitVec 64))
(declare-fun var70926 () (_ BitVec 64))
(declare-fun temp2125_54 () (_ BitVec 64))
(declare-fun var70828 () (_ BitVec 64))
(declare-fun var70827 () (_ BitVec 64))
(declare-fun temp2125_57 () (_ BitVec 64))
(declare-fun var70933 () (_ BitVec 64))
(declare-fun temp2125_58 () (_ BitVec 64))
(declare-fun var70935 () (_ BitVec 64))
(declare-fun temp2125_59 () (_ BitVec 64))
(declare-fun temp2125_60 () (_ BitVec 64))
(declare-fun var71011 () (_ BitVec 64))
(declare-fun temp2125_61 () (_ BitVec 64))
(declare-fun temp2125_63 () (_ BitVec 64))
(declare-fun temp2125_62 () (_ BitVec 64))
(declare-fun temp2125_65 () (_ BitVec 64))
(declare-fun temp2125_64 () (_ BitVec 64))
(declare-fun temp2125_67 () (_ BitVec 64))
(declare-fun temp2125_66 () (_ BitVec 64))
(declare-fun temp2125_69 () (_ BitVec 64))
(declare-fun temp2125_68 () (_ BitVec 64))
(declare-fun temp2125_71 () (_ BitVec 64))
(declare-fun temp2125_70 () (_ BitVec 64))
(declare-fun temp2125_73 () (_ BitVec 64))
(declare-fun temp2125_72 () (_ BitVec 64))
(declare-fun temp2125_75 () (_ BitVec 64))
(declare-fun temp2125_74 () (_ BitVec 64))
(declare-fun temp2125_77 () (_ BitVec 64))
(declare-fun temp2125_76 () (_ BitVec 64))
(declare-fun temp2125_79 () (_ BitVec 64))
(declare-fun temp2125_78 () (_ BitVec 64))
(declare-fun temp2125_81 () (_ BitVec 64))
(declare-fun temp2125_80 () (_ BitVec 64))
(declare-fun temp2125_82 () (_ BitVec 64))
(declare-fun var2694331 () (_ BitVec 64))
(assert (= temp2125_1 #x0000000000000009))
(assert (= var70588
   (ite (bvslt ARGNAME_input_NAMEEND_DIM temp2125_1)
        #x0000000000000001
        #x0000000000000000)))
(assert (= temp2125_2 #x0000000000000001))
(assert (= var70588 temp2125_2))
(assert (= temp2125_3 #x0000000000000002))
(assert (= var137105
   (ite (= ARGNAME_paddings_NAMEEND_DIM temp2125_3)
        #x0000000000000001
        #x0000000000000000)))
(assert (= var137101 var137105))
(assert (= var70624 var137101))
(assert (= temp2125_4 #x0000000000000001))
(assert (= var70624 temp2125_4))
(assert (= temp2125_5 #x0000000000000000))
(assert (= temp2125_6 (select ARGNAME_paddings_NAMEEND_DIMSIZE temp2125_5)))
(assert (= temp2125_7 #x0000000000000001))
(assert (= temp2125_8 (select ARGNAME_paddings_NAMEEND_DIMSIZE temp2125_7)))
(assert (= temp2125_9 #x0000000000000002))
(assert (= temp2125_10 (select ARGNAME_paddings_NAMEEND_DIMSIZE temp2125_9)))
(assert (= temp2125_11 #x0000000000000003))
(assert (= temp2125_12 (select ARGNAME_paddings_NAMEEND_DIMSIZE temp2125_11)))
(assert (= temp2125_13 #x0000000000000004))
(assert (= temp2125_14 (select ARGNAME_paddings_NAMEEND_DIMSIZE temp2125_13)))
(assert (= temp2125_15 #x0000000000000005))
(assert (= temp2125_16 (select ARGNAME_paddings_NAMEEND_DIMSIZE temp2125_15)))
(assert (= temp2125_17 #x0000000000000001))
(assert (= temp2125_18 (select ARGNAME_paddings_NAMEEND_DIMSIZE temp2125_17)))
(assert (= var70628 temp2125_18))
(assert (= temp2125_19 #x0000000000000002))
(assert (= var70631
   (ite (= var70628 temp2125_19) #x0000000000000001 #x0000000000000000)))
(assert (= temp2125_20 #x0000000000000001))
(assert (= var70631 temp2125_20))
(assert (= temp2125_21 #x0000000000000000))
(assert (= temp2125_22 (select ARGNAME_paddings_NAMEEND_DIMSIZE temp2125_21)))
(assert (= var70672 temp2125_22))
(assert (= var70673
   (ite (= var70672 ARGNAME_input_NAMEEND_DIM)
        #x0000000000000001
        #x0000000000000000)))
(assert (= temp2125_23 #x0000000000000001))
(assert (= var70673 temp2125_23))
(assert (= temp2125_25 #x0000000000000000))
(assert (= temp2125_24 temp2125_25))
(assert (= temp2125_27 #x0000000000000000))
(assert (= temp2125_26 temp2125_27))
(assert (= temp2125_29 #x0000000000000000))
(assert (= temp2125_28 temp2125_29))
(assert (= temp2125_30 #x0000000000000000))
(assert (= var70819
   (ite (bvsgt ARGNAME_input_NAMEEND_DIM temp2125_30)
        #x0000000000000001
        #x0000000000000000)))
(assert (= temp2125_31 #x0000000000000001))
(assert (= var70819 temp2125_31))
(assert (= temp2125_32 #x0000000000000000))
(assert (= var70840 temp2125_32))
(assert (= var596152 var70840))
(assert (= temp2125_33 #x0000000000000000))
(assert (= var596153 temp2125_33))
(assert (= temp2125_34 #x0000000000000001))
(assert (= var663491 temp2125_34))
(assert (= var596156 var663491))
(assert (= temp2125_35 #x0000000000000001))
(assert (= var596156 temp2125_35))
(assert (= var1054904 var70840))
(assert (= temp2125_36 #x0000000000000001))
(assert (= var1054905 temp2125_36))
(assert (= temp2125_37 #x0000000000000001))
(assert (= var1122243 temp2125_37))
(assert (= var1054908 var1122243))
(assert (= temp2125_38 #x0000000000000001))
(assert (= var1054908 temp2125_38))
(assert (= var70890 var70840))
(assert (= temp2125_39 #x0000000000000000))
(assert (= temp2125_40 (select ARGNAME_input_NAMEEND_DIMSIZE temp2125_39)))
(assert (= temp2125_41 #x0000000000000001))
(assert (= temp2125_42 (select ARGNAME_input_NAMEEND_DIMSIZE temp2125_41)))
(assert (= temp2125_43 #x0000000000000002))
(assert (= temp2125_44 (select ARGNAME_input_NAMEEND_DIMSIZE temp2125_43)))
(assert (= temp2125_45 #x0000000000000003))
(assert (= temp2125_46 (select ARGNAME_input_NAMEEND_DIMSIZE temp2125_45)))
(assert (= temp2125_47 #x0000000000000004))
(assert (= temp2125_48 (select ARGNAME_input_NAMEEND_DIMSIZE temp2125_47)))
(assert (= temp2125_49 #x0000000000000005))
(assert (= temp2125_50 (select ARGNAME_input_NAMEEND_DIMSIZE temp2125_49)))
(assert (= temp2125_51 (select ARGNAME_input_NAMEEND_DIMSIZE var70890)))
(assert (= var70891 temp2125_51))
(assert (= temp2125_52 #x0000000000000000))
(assert (= var70921 temp2125_52))
(assert (= var70925 var70921))
(assert (= temp2125_53 #x0000000000000000))
(assert (= var70926
   (ite (= var70925 temp2125_53) #x0000000000000001 #x0000000000000000)))
(assert (= temp2125_54 #x0000000000000001))
(assert (= var70828 (bvadd var70840 temp2125_54)))
(assert (= var70827
   (ite (= var70828 ARGNAME_input_NAMEEND_DIM)
        #x0000000000000001
        #x0000000000000000)))
(assert (= temp2125_57 #x000000000000000a))
(assert (= var70933 temp2125_57))
(assert (= temp2125_58 #x000000000000000a))
(assert (= var70935
   (ite (= var70933 temp2125_58) #x0000000000000001 #x0000000000000000)))
(assert (= temp2125_59 #x0000000000000001))
(assert (= var70935 temp2125_59))
(assert (= temp2125_60 #x0000000000000001))
(assert (= var71011
   (ite (bvsgt ARGNAME_input_NAMEEND_DIM temp2125_60)
        #x0000000000000001
        #x0000000000000000)))
(assert (= temp2125_61 #x0000000000000001))
(assert (= var71011 temp2125_61))
(assert (= temp2125_63 #x0000000000000000))
(assert (= temp2125_62 temp2125_63))
(assert (= temp2125_65 #x0000000000000000))
(assert (= temp2125_64 temp2125_65))
(assert (= temp2125_67 #x0000000000000000))
(assert (= temp2125_66 temp2125_67))
(assert (= temp2125_69 #x0000000000000000))
(assert (= temp2125_68 temp2125_69))
(assert (= temp2125_71 #x0000000000000000))
(assert (= temp2125_70 temp2125_71))
(assert (= temp2125_73 #x0000000000000001))
(assert (= temp2125_72 temp2125_73))
(assert (= temp2125_75 #x0000000000000000))
(assert (= temp2125_74 temp2125_75))
(assert (= temp2125_77 #x0000000000000000))
(assert (= temp2125_76 temp2125_77))
(assert (= temp2125_79 #x0000000000000000))
(assert (= temp2125_78 temp2125_79))
(assert (= temp2125_81 #x0000000000000000))
(assert (= temp2125_80 temp2125_81))
(assert (= temp2125_82 #x0000000000000003))
(assert (= var2694331 temp2125_82))
(model-add temp2125_1 () (_ BitVec 64) #x0000000000000009)
(model-add temp2125_2 () (_ BitVec 64) #x0000000000000001)
(model-add var70588 () (_ BitVec 64) #x0000000000000001)
(model-del k!0)
(model-add ARGNAME_input_NAMEEND_DIM
           ()
           (_ BitVec 64)
           (ite (or k!0 (= #x0000000000000009 #x8000000000000000))
                #x0000000000000009
                (bvsub #x0000000000000009 #x0000000000000001)))


